Data path: /scratch/opt/lxu/CFLG/benchmarks/tree_A
Instance: treeA.600.30
Result path: /scratch/opt/lxu/CFLG/results/tree_A
Solver: Gurobi
Time limit: 7200
Formulation: LEFPAV
Cover: Small
julia --project=. src/main.jl /scratch/opt/lxu/CFLG/benchmarks/tree_A treeA.600.30 /scratch/opt/lxu/CFLG/results/tree_A Gurobi 7200 LEFPAV Small
The latest version of Julia in the `release` channel is 1.11.5+0.x64.linux.gnu. You currently have `1.11.4+0.x64.linux.gnu` installed. Run:

  juliaup update

in your terminal shell to install Julia 1.11.5+0.x64.linux.gnu and update the `release` channel to that version.
/scratch/opt/lxu/CFLG/benchmarks/tree_A Gurobi 7200.0 /scratch/opt/lxu/CFLG/results/tree_A treeA.600.30 LEFPAV Small
/scratch/opt/lxu/CFLG/benchmarks/tree_A/treeA.600.30

 read graph
data loaded


after absorb:372 600

max_piece:36
problem_graph/original graph: node: 372/600 edge: 401/629 dlt: 0.3742290010786427 break_avg_len: 2.3480303409323326 break_max_len: 13.284197160188546Vbar/V, Ebar/E(123, 372, 152, 401)
Set parameter TokenServer to value "solice01.zib.de"
Set parameter Threads to value 1
Set parameter OutputFlag to value 1
Gurobi Optimizer version 12.0.1 build v12.0.1rc0 (linux64 - "Debian GNU/Linux 12 (bookworm)")

CPU model: Intel(R) Xeon(R) Gold 5122 CPU @ 3.60GHz, instruction set [SSE2|AVX|AVX2|AVX512]
Thread count: 8 physical cores, 16 logical processors, using up to 1 threads

Non-default parameters:
Threads  1

Optimize a model with 471 rows, 750 columns and 1250 nonzeros
Model fingerprint: 0x5f582750
Coefficient statistics:
  Matrix range     [1e+00, 1e+00]
  Objective range  [1e+00, 1e+00]
  Bounds range     [1e+00, 1e+00]
  RHS range        [1e+00, 1e+00]
Presolve removed 471 rows and 750 columns
Presolve time: 0.00s
Presolve: All rows and columns removed
Iteration    Objective       Primal Inf.    Dual Inf.      Time
       0    9.8000000e+01   0.000000e+00   0.000000e+00      0s

Solved in 0 iterations and 0.00 seconds (0.00 work units)
Optimal objective  9.800000000e+01

User-callback calls 35, time in user-callback 0.00 sec
elapsed CPU time: 1.094942 seconds
Set parameter TokenServer to value "solice01.zib.de"
Set parameter Threads to value 1
Set parameter OutputFlag to value 1
Set parameter MIPGap to value 0.0001
Set parameter MIPGapAbs to value 0.999998
Set parameter TimeLimit to value 7198.905058

 more cuts: false 0.3742290010786427 false
is_attach:trueformulation:LEFPAV0 250 0
Set parameter PreCrush to value 1

 model loaded

Gurobi Optimizer version 12.0.1 build v12.0.1rc0 (linux64 - "Debian GNU/Linux 12 (bookworm)")

CPU model: Intel(R) Xeon(R) Gold 5122 CPU @ 3.60GHz, instruction set [SSE2|AVX|AVX2|AVX512]
Thread count: 8 physical cores, 16 logical processors, using up to 1 threads

Non-default parameters:
TimeLimit  7198.905058
MIPGapAbs  0.999998
PreCrush  1
Threads  1

Optimize a model with 3188 rows, 2389 columns and 7661 nonzeros
Model fingerprint: 0x36599c03
Variable types: 721 continuous, 1668 integer (1668 binary)
Coefficient statistics:
  Matrix range     [9e-04, 1e+01]
  Objective range  [1e+00, 1e+00]
  Bounds range     [9e-04, 1e+01]
  RHS range        [1e-06, 1e+01]
Presolve removed 3188 rows and 2389 columns
Presolve time: 0.00s
Presolve: All rows and columns removed

Explored 0 nodes (0 simplex iterations) in 0.00 seconds (0.00 work units)
Thread count was 1 (of 16 available processors)

Solution count 1: 923 

Optimal solution found (tolerance 1.00e-04)
Best objective 9.230000000000e+02, best bound 9.230000000000e+02, gap 0.0000%

User-callback calls 528, time in user-callback 0.67 sec

 sepatime0 529 0
923.0Stat(MathOptInterface.OPTIMAL, 923.0, 923.0, 0.0, 0.0, 1.094942, 0.004754066467285156, 0, Main.CFLG.LEFPAV, "", #undef)
ERROR: LoadError: SystemError: opening file "/scratch/opt/lxu/CFLG/results/tree_A/treeA.600.30.LEFPAV.Small": No such file or directory
Stacktrace:
 [1] systemerror(p::String, errno::Int32; extrainfo::Nothing)
   @ Base ./error.jl:176
 [2] systemerror
   @ ./error.jl:175 [inlined]
 [3] open(fname::String; lock::Bool, read::Nothing, write::Nothing, create::Nothing, truncate::Bool, append::Nothing)
   @ Base ./iostream.jl:295
 [4] open
   @ ./iostream.jl:277 [inlined]
 [5] open(fname::String, mode::String; lock::Bool)
   @ Base ./iostream.jl:358
 [6] open
   @ ./iostream.jl:357 [inlined]
 [7] main(args::Vector{String})
   @ Main /scratch/opt/lxu/CFLG/src/main.jl:51
 [8] top-level scope
   @ /scratch/opt/lxu/CFLG/src/main.jl:57
in expression starting at /scratch/opt/lxu/CFLG/src/main.jl:57
srun: error: htc-cmp449: task 0: Exited with exit code 1
